* #variable= 50 #constraint= 1
min: -748 x1 -482 x2 -512 x3 -804 x4 -246 x5 -340 x6 -488 x7 -336 x8 -976 x9 -62 x10 -174 x11 -846 x12 -434 x13 -662 x14 -856 x15 -392 x16 -426 x17 -236 x18 -766 x19 -360 x20 -1000 x21 -468 x22 -568 x23 -432 x24 -760 x25 -544 x26 -280 x27 -238 x28 -330 x29 -860 x30 -138 x31 -120 x32 -322 x33 -74 x34 -484 x35 -694 x36 -30 x37 -344 x38 -74 x39 -134 x40 -210 x41 -734 x42 -284 x43 -460 x44 -832 x45 -560 x46 -948 x47 -124 x48 -994 x49 -814 x50 ;
-748 x1 -482 x2 -512 x3 -804 x4 -246 x5 -340 x6 -488 x7 -336 x8 -976 x9 -62 x10 -174 x11 -846 x12 -434 x13 -662 x14 -856 x15 -392 x16 -426 x17 -236 x18 -766 x19 -360 x20 -1000 x21 -468 x22 -568 x23 -432 x24 -760 x25 -544 x26 -280 x27 -238 x28 -330 x29 -860 x30 -138 x31 -120 x32 -322 x33 -74 x34 -484 x35 -694 x36 -30 x37 -344 x38 -74 x39 -134 x40 -210 x41 -734 x42 -284 x43 -460 x44 -832 x45 -560 x46 -948 x47 -124 x48 -994 x49 -814 x50 >= -1001 ;